%chk=benzene.chk
#p B3LYP/6-31G(d) Opt

benzene

0 1
C                  -1.247330    0.624132   -0.013030
C                  -1.164278   -0.767672    0.026044
C                   0.083051   -1.391803    0.039072
C                   1.247328   -0.624131    0.013030
C                   1.164277    0.767671   -0.026043
C                  -0.083052    1.391803   -0.039072
H                  -2.219142    1.110403   -0.023172
H                  -2.071383   -1.365777    0.046346
H                   0.147760   -2.476177    0.069512
H                   2.219142   -1.110400    0.023172
H                   2.071384    1.365774   -0.046347
H                  -0.147757    2.476178   -0.069512

