%chk=example.chk
%mem=2GB
%nprocshared=4
#p B3LYP/6-31G(d) Opt

Title Card Required

0 1
C    0.000000    0.000000    0.000000
H    0.000000    0.000000    1.089000
H    1.026719    0.000000   -0.363000
H   -0.513360   -0.889165   -0.363000
H   -0.513360    0.889165   -0.363000
